c Created with the Wolfram Language : www.wolfram.com
c 
p edge 90 420
e 3 6
e 2 7
e 6 7
e 8 10
e 10 13
e 7 14
e 3 15
e 9 15
e 13 15
e 9 16
e 1 18
e 16 18
e 1 20
e 10 20
e 5 21
e 13 21
e 3 22
e 5 22
e 6 22
e 11 23
e 13 23
e 17 23
e 3 24
e 5 24
e 20 24
e 10 25
e 18 25
e 19 25
e 12 26
e 17 26
e 3 27
e 11 27
e 15 28
e 1 29
e 3 29
e 5 29
e 15 29
e 16 30
e 22 30
e 1 32
e 7 32
e 18 32
e 19 32
e 23 32
e 26 32
e 1 33
e 2 33
e 5 33
e 12 33
e 15 33
e 17 33
e 12 34
e 22 34
e 3 35
e 4 35
e 6 35
e 22 35
e 25 35
e 1 36
e 5 36
e 6 36
e 19 36
e 19 37
e 23 37
e 27 37
e 3 38
e 8 38
e 14 38
e 19 38
e 24 38
e 36 38
e 8 39
e 1 40
e 18 40
e 21 40
e 29 40
e 36 40
e 1 41
e 7 41
e 22 41
e 29 41
e 34 41
e 4 42
e 10 42
e 15 42
e 16 42
e 27 42
e 41 42
e 9 43
e 15 43
e 17 43
e 25 43
e 31 43
e 3 44
e 5 44
e 8 44
e 10 44
e 14 44
e 26 44
e 38 44
e 41 44
e 38 45
e 2 46
e 4 46
e 6 46
e 17 46
e 30 46
e 36 46
e 6 47
e 9 47
e 29 47
e 31 47
e 36 47
e 39 47
e 17 48
e 21 48
e 22 48
e 33 48
e 41 48
e 11 49
e 21 49
e 23 49
e 11 50
e 29 50
e 37 50
e 43 50
e 46 50
e 13 51
e 24 51
e 25 51
e 26 51
e 28 51
e 35 51
e 39 51
e 40 51
e 17 52
e 18 52
e 36 52
e 15 53
e 24 53
e 2 54
e 4 54
e 12 54
e 22 54
e 32 54
e 40 54
e 51 54
e 4 55
e 46 55
e 48 55
e 12 56
e 23 56
e 25 56
e 34 56
e 35 56
e 39 56
e 43 56
e 52 56
e 25 57
e 39 57
e 45 57
e 14 58
e 19 58
e 47 58
e 49 58
e 1 59
e 7 59
e 10 59
e 24 59
e 43 59
e 54 59
e 25 60
e 33 60
e 2 61
e 4 61
e 17 61
e 27 61
e 37 61
e 40 61
e 48 61
e 8 62
e 9 62
e 30 62
e 32 62
e 37 62
e 40 62
e 48 62
e 50 62
e 1 63
e 7 63
e 8 63
e 9 63
e 23 63
e 28 63
e 29 63
e 56 63
e 10 64
e 31 64
e 32 64
e 33 64
e 34 64
e 39 64
e 51 64
e 53 64
e 1 65
e 26 65
e 28 65
e 31 65
e 38 65
e 43 65
e 58 65
e 59 65
e 15 66
e 23 66
e 32 66
e 35 66
e 48 66
e 52 66
e 3 67
e 9 67
e 14 67
e 26 67
e 31 67
e 37 67
e 65 67
e 4 68
e 31 68
e 35 68
e 37 68
e 42 68
e 50 68
e 11 69
e 20 69
e 22 69
e 41 69
e 46 69
e 49 69
e 65 69
e 1 70
e 2 70
e 11 70
e 24 70
e 27 70
e 43 70
e 45 70
e 46 70
e 47 70
e 51 70
e 55 70
e 9 71
e 10 71
e 23 71
e 24 71
e 29 71
e 30 71
e 35 71
e 53 71
e 1 72
e 3 72
e 4 72
e 7 72
e 16 72
e 19 72
e 24 72
e 33 72
e 35 72
e 50 72
e 9 73
e 21 73
e 36 73
e 60 73
e 15 74
e 24 74
e 25 74
e 26 74
e 37 74
e 42 74
e 46 74
e 54 74
e 63 74
e 70 74
e 18 75
e 22 75
e 29 75
e 38 75
e 48 75
e 2 76
e 9 76
e 16 76
e 38 76
e 41 76
e 53 76
e 59 76
e 69 76
e 6 77
e 8 77
e 24 77
e 34 77
e 36 77
e 37 77
e 60 77
e 63 77
e 70 77
e 2 78
e 3 78
e 9 78
e 15 78
e 50 78
e 62 78
e 64 78
e 3 79
e 7 79
e 9 79
e 26 79
e 45 79
e 54 79
e 4 80
e 9 80
e 12 80
e 32 80
e 36 80
e 41 80
e 67 80
e 78 80
e 1 81
e 11 81
e 27 81
e 28 81
e 42 81
e 57 81
e 73 81
e 74 81
e 1 82
e 5 82
e 18 82
e 19 82
e 42 82
e 45 82
e 58 82
e 67 82
e 68 82
e 81 82
e 8 83
e 22 83
e 24 83
e 30 83
e 36 83
e 39 83
e 45 83
e 51 83
e 81 83
e 5 84
e 39 84
e 40 84
e 51 84
e 57 84
e 58 84
e 69 84
e 5 85
e 8 85
e 16 85
e 17 85
e 19 85
e 30 85
e 38 85
e 42 85
e 51 85
e 52 85
e 55 85
e 60 85
e 78 85
e 7 86
e 31 86
e 48 86
e 51 86
e 54 86
e 68 86
e 76 86
e 85 86
e 15 87
e 21 87
e 25 87
e 37 87
e 38 87
e 53 87
e 62 87
e 69 87
e 77 87
e 81 87
e 82 87
e 83 87
e 85 87
e 40 88
e 43 88
e 51 88
e 52 88
e 54 88
e 56 88
e 72 88
e 1 89
e 3 89
e 4 89
e 39 89
e 43 89
e 47 89
e 58 89
e 64 89
e 69 89
e 2 90
e 9 90
e 12 90
e 20 90
e 22 90
e 42 90
e 47 90
e 59 90
e 73 90
e 79 90
e 80 90
e 89 90
